
Gurobi 9.5.1 (linux64) logging started Thu 09 Jun 2022 07:54:14 PM MST

Set parameter LogFile to value "/home/local/ASUAD/kmajd1/NNRepLayer_v2/demos/walking_example/dynamic_constraint/repair_net/logs/opt_log_6_9_2022_19_53_41.log"
Gurobi Optimizer version 9.5.1 build v9.5.1rc2 (linux64)
Thread count: 48 physical cores, 96 logical processors, using up to 32 threads
Optimize a model with 37077 rows, 22792 columns and 105173 nonzeros
Model fingerprint: 0x16a6aa41
Model has 136 quadratic objective terms
Variable types: 9832 continuous, 12960 integer (12960 binary)
Coefficient statistics:
  Matrix range     [7e-04, 3e+01]
  Objective range  [2e-02, 3e+00]
  QObjective range [1e-01, 2e+00]
  Bounds range     [5e-01, 3e+01]
  RHS range        [2e-04, 3e+01]
Presolve removed 22254 rows and 8832 columns
Presolve time: 0.16s
Presolved: 14823 rows, 13960 columns, 69594 nonzeros
Presolved model has 136 quadratic objective terms
Variable types: 9640 continuous, 4320 integer (4320 binary)
Root relaxation presolve removed 4320 rows and 4320 columns
Root relaxation presolved: 10503 rows, 9640 columns, 60954 nonzeros
Root relaxation presolved model has 136 quadratic objective terms


Root relaxation: objective 2.136565e+01, 11744 iterations, 1.02 seconds (2.31 work units)

    Nodes    |    Current Node    |     Objective Bounds      |     Work
 Expl Unexpl |  Obj  Depth IntInf | Incumbent    BestBd   Gap | It/Node Time

     0     0   21.36565    0  778          -   21.36565      -     -    4s
     0     0   21.36944    0  786          -   21.36944      -     -   10s
     0     0   21.36944    0  786          -   21.36944      -     -   11s
     0     0   21.37001    0  886          -   21.37001      -     -   11s
     0     0   21.37001    0  861          -   21.37001      -     -   11s
     0     0   21.37003    0  917          -   21.37003      -     -   12s
     0     0   21.37003    0  918          -   21.37003      -     -   12s
     0     0   21.37025    0  952          -   21.37025      -     -   14s
     0     0   21.37025    0  951          -   21.37025      -     -   14s
     0     0   21.37223    0  980          -   21.37223      -     -   15s
     0     0   21.37223    0  998          -   21.37223      -     -   15s
     0     0   21.37223    0 1005          -   21.37223      -     -   16s
     0     0   21.37223    0 1011          -   21.37223      -     -   16s
     0     0   21.37223    0 1043          -   21.37223      -     -   17s
     0     0   21.37223    0 1031          -   21.37223      -     -   17s
     0     0   21.37223    0 1058          -   21.37223      -     -   18s
H    0     0                      75.8412754   21.37223  71.8%     -   37s
H    0     0                      75.7311222   21.37223  71.8%     -   39s
     0     2   21.37223    0 1058   75.73112   21.37223  71.8%     -   39s
     1     4   21.39498    1 1111   75.73112   21.37223  71.8%  1467   40s
    15    32   21.39498    4 1191   75.73112   21.37553  71.8%  1142   45s
H   31    64                      74.1600741   21.37620  71.2%  1359   56s
    63    96   21.39498    6 1248   74.16007   21.37620  71.2%  1758   62s
H   95   128                      37.1417253   21.37620  42.4%  1839  125s
H   96   128                      36.7928133   21.37620  41.9%  1850  125s
H   97   128                      36.6065878   21.37620  41.6%  1834  125s
H  122   128                      32.2511287   21.37620  33.7%  1632  125s
   127   160   21.39498    7 1224   32.25113   21.37620  33.7%  1581  163s
H  129   160                      32.1666539   21.37620  33.5%  1560  163s
H  131   160                      31.8998973   21.37620  33.0%  1550  163s
H  147   160                      31.8657114   21.37620  32.9%  1418  163s
H  149   160                      31.6996441   21.37620  32.6%  1402  163s
   191   224   21.39498    9 1216   31.69964   21.37620  32.6%  1144  174s
H  223   256                      31.5858447   21.37620  32.3%  1012  212s
H  224   256                      31.4174851   21.37620  32.0%  1007  212s
H  225   256                      31.3665436   21.37620  31.9%  1003  212s
H  228   256                      31.2526405   21.37620  31.6%   995  212s
H  236   256                      31.1859363   21.37620  31.5%   968  212s
   319   384   21.39498   13 1170   31.18594   21.37620  31.5%   796  215s
   827   986   21.39498   29 1137   31.18594   21.37620  31.5%   444  222s
  1326  1409   21.39498   49 1076   31.18594   21.37620  31.5%   342  265s
  2431  2710   21.39498   80 1055   31.18594   21.37620  31.5%   253  270s
  2985  3281   21.39498   90 1060   31.18594   21.37620  31.5%   232  275s
  3286  3587   21.39498   99 1029   31.18594   21.37620  31.5%   225  280s
  3918  4235   21.39498  119 1030   31.18594   21.37620  31.5%   224  285s
  4242  4590   21.39498  127 1040   31.18594   21.37620  31.5%   226  290s
  4597  4949   21.39498  134 1034   31.18594   21.37620  31.5%   233  295s
  4962  5311 infeasible  142        31.18594   21.37620  31.5%   240  300s
  5328  5698   21.39498  144 1021   31.18594   21.37620  31.5%   244  306s

Cutting planes:
  Gomory: 1
  Cover: 67
  Implied bound: 455
  Clique: 1
  MIR: 8845
  Flow cover: 2866
  Relax-and-lift: 151

Explored 5723 nodes (1448594 simplex iterations) in 306.86 seconds (688.85 work units)
Thread count was 32 (of 96 available processors)

Solution count 10: 31.1859 31.2526 31.3665 ... 32.2511

Solve interrupted
Best objective 3.118593629456e+01, best bound 2.137619720074e+01, gap 31.4557%
